; benchmark generated from python API
(set-info :status unknown)
(declare-fun x_month () (_ BitVec 32))
(declare-fun x_year () (_ BitVec 32))
(declare-fun x_day () (_ BitVec 32))
(assert
 (let (($x842 (or (= (_ bv4 32) x_month) (= (_ bv6 32) x_month) (= (_ bv9 32) x_month) (= (_ bv11 32) x_month))))
 (let (($x3025 (and (= (_ bv0 32) (bvsmod x_year (_ bv4 32))) (and (distinct (_ bv0 32) (bvsmod x_year (_ bv100 32))) true))))
 (let (($x2372 (= (_ bv2 32) x_month)))
 (let ((?x3428 (ite $x2372 (ite (or $x3025 (= (_ bv0 32) (bvsmod x_year (_ bv400 32)))) (_ bv29 32) (_ bv28 32)) (ite $x842 (_ bv30 32) (_ bv31 32)))))
 (let (($x3863 (bvsle x_day ?x3428)))
 (let (($x2285 (bvsle (_ bv1 32) x_day)))
 (let (($x3133 (bvsle (_ bv1 32) x_month)))
 (let (($x2769 (bvsge (_ bv12 32) x_month)))
 (let (($x2152 (bvsle (_ bv1901 32) x_year)))
 (or (and (= (_ bv1900 32) x_year) (bvsle (_ bv3 32) x_month) $x2769 $x2285 $x3863) (and $x2152 (bvsge (_ bv2099 32) x_year) $x3133 $x2769 $x2285 $x3863) (and (= (_ bv2100 32) x_year) $x3133 (bvsge (_ bv2 32) x_month) $x2285 $x3863))))))))))))
(assert
 (let (($x3135 (or (bvslt (_ bv1 32) x_month) (and (= (_ bv1 32) x_month) (bvsle (_ bv1 32) x_day)))))
 (let (($x3815 (= (_ bv2020 32) x_year)))
 (or (bvslt (_ bv2020 32) x_year) (and $x3815 $x3135)))))
(assert
 (let (($x2157 (or (bvsgt (_ bv2 32) x_month) (and (= (_ bv2 32) x_month) (bvsge (_ bv28 32) x_day)))))
 (let (($x3815 (= (_ bv2020 32) x_year)))
 (or (bvsgt (_ bv2020 32) x_year) (and $x3815 $x2157)))))
(assert
 (let ((?x4388 (bvadd x_month (bvadd (bvmul (_ bv0 32) (_ bv12 32)) (_ bv0 32)))))
(let ((?x3584 (bvsub (ite (bvuge ?x4388 (_ bv2147483648 32)) (bvsub ?x4388 (_ bv0 32)) ?x4388) (_ bv1 32))))
(let ((?x4050 (bvsmod ?x3584 (_ bv12 32))))
(let ((?x1168 (bvadd ?x4050 (_ bv1 32))))
(let (($x1819 (= (_ bv11 32) ?x1168)))
(let (($x1443 (= (_ bv9 32) ?x1168)))
(let (($x1259 (= (_ bv6 32) ?x1168)))
(let (($x4635 (= (_ bv4 32) ?x1168)))
(let ((?x925 (bvsdiv ?x3584 (_ bv12 32))))
(let ((?x4135 (ite (and (bvuge ?x3584 (_ bv2147483648 32)) (and (distinct (_ bv0 32) ?x4050) true)) (bvsub ?x925 (_ bv1 32)) ?x925)))
(let ((?x3611 (bvadd x_year ?x4135)))
(let (($x2028 (or (and (= (_ bv0 32) (bvsmod ?x3611 (_ bv4 32))) (and (distinct (_ bv0 32) (bvsmod ?x3611 (_ bv100 32))) true)) (= (_ bv0 32) (bvsmod ?x3611 (_ bv400 32))))))
(let (($x4399 (= (_ bv2 32) ?x1168)))
(let ((?x1436 (ite $x4399 (ite $x2028 (_ bv29 32) (_ bv28 32)) (ite (or $x4635 $x1259 $x1443 $x1819) (_ bv30 32) (_ bv31 32)))))
(let (($x789 (bvsgt (_ bv1 32) x_day)))
(let ((?x1393 (ite $x789 (_ bv1 32) (ite (bvsgt x_day ?x1436) ?x1436 x_day))))
(let ((?x3560 (ite (bvsgt (_ bv1 32) ?x1393) (_ bv1 32) (ite (bvsgt ?x1393 ?x1436) ?x1436 ?x1393))))
(let ((?x4044 (ite $x4399 (ite $x2028 (_ bv31 32) (_ bv31 32)) (ite (= (_ bv1 32) ?x1168) (ite $x2028 (_ bv0 32) (_ bv0 32)) (_ bv0 32)))))
(let ((?x1333 (ite $x4635 (ite $x2028 (_ bv91 32) (_ bv90 32)) (ite (= (_ bv3 32) ?x1168) (ite $x2028 (_ bv60 32) (_ bv59 32)) ?x4044))))
(let ((?x1974 (ite $x1259 (ite $x2028 (_ bv152 32) (_ bv151 32)) (ite (= (_ bv5 32) ?x1168) (ite $x2028 (_ bv121 32) (_ bv120 32)) ?x1333))))
(let ((?x1418 (ite (= (_ bv8 32) ?x1168) (ite $x2028 (_ bv213 32) (_ bv212 32)) (ite (= (_ bv7 32) ?x1168) (ite $x2028 (_ bv182 32) (_ bv181 32)) ?x1974))))
(let ((?x2550 (ite (= (_ bv10 32) ?x1168) (ite $x2028 (_ bv274 32) (_ bv273 32)) (ite $x1443 (ite $x2028 (_ bv244 32) (_ bv243 32)) ?x1418))))
(let ((?x2099 (ite (= (_ bv12 32) ?x1168) (ite $x2028 (_ bv335 32) (_ bv334 32)) (ite $x1819 (ite $x2028 (_ bv305 32) (_ bv304 32)) ?x2550))))
(let ((?x1001 (bvadd (bvmul (_ bv365 32) (bvsub ?x3611 (_ bv1 32))) (bvsdiv (bvsub ?x3611 (_ bv1 32)) (_ bv4 32)))))
(let ((?x634 (bvadd (bvsub ?x1001 (bvsdiv (bvsub ?x3611 (_ bv1 32)) (_ bv100 32))) (bvsdiv (bvsub ?x3611 (_ bv1 32)) (_ bv400 32)))))
(let ((?x4364 (bvadd (bvadd (bvsub (bvadd (bvadd ?x634 ?x2099) (bvsub ?x3560 (_ bv1 32))) (_ bv730179 32)) (_ bv365 32)) (_ bv730179 32))))
(let ((?x522 (bvsmod ?x4364 (_ bv146097 32))))
(let ((?x1942 (bvsdiv ?x522 (_ bv36524 32))))
(let ((?x4468 (ite (bvsle (_ bv4 32) ?x1942) (_ bv3 32) ?x1942)))
(let ((?x1141 (bvsub ?x522 (bvmul ?x4468 (_ bv36524 32)))))
(let ((?x1683 (bvsmod ?x1141 (_ bv1461 32))))
(let ((?x572 (bvsdiv ?x1683 (_ bv365 32))))
(let ((?x3070 (ite (bvsle (_ bv4 32) ?x572) (_ bv3 32) ?x572)))
(let ((?x4337 (bvadd (bvadd (bvmul (bvsdiv ?x4364 (_ bv146097 32)) (_ bv400 32)) (bvmul ?x4468 (_ bv100 32))) (bvmul (bvsdiv ?x1141 (_ bv1461 32)) (_ bv4 32)))))
(let ((?x3361 (bvadd (bvadd ?x4337 ?x3070) (_ bv1 32))))
(let (($x1199 (or (and (= (_ bv0 32) (bvsmod ?x3361 (_ bv4 32))) (and (distinct (_ bv0 32) (bvsmod ?x3361 (_ bv100 32))) true)) (= (_ bv0 32) (bvsmod ?x3361 (_ bv400 32))))))
(let ((?x2739 (bvsub ?x1683 (bvmul ?x3070 (_ bv365 32)))))
(let ((?x3267 (ite $x1199 (_ bv31 32) (_ bv31 32))))
(let (($x1491 (bvsge ?x2739 ?x3267)))
(let ((?x3878 (ite $x1491 (bvadd (bvsub ?x2739 ?x3267) (_ bv1 32)) (bvadd (bvsub ?x2739 (ite $x1199 (_ bv0 32) (_ bv0 32))) (_ bv1 32)))))
(let ((?x1043 (ite $x1199 (_ bv60 32) (_ bv59 32))))
(let (($x3477 (bvsge ?x2739 ?x1043)))
(let ((?x1856 (ite $x1199 (_ bv91 32) (_ bv90 32))))
(let (($x2058 (bvsge ?x2739 ?x1856)))
(let ((?x3789 (ite $x2058 (bvadd (bvsub ?x2739 ?x1856) (_ bv1 32)) (ite $x3477 (bvadd (bvsub ?x2739 ?x1043) (_ bv1 32)) ?x3878))))
(let ((?x2670 (ite $x1199 (_ bv121 32) (_ bv120 32))))
(let (($x1657 (bvsge ?x2739 ?x2670)))
(let ((?x667 (ite $x1199 (_ bv152 32) (_ bv151 32))))
(let (($x3186 (bvsge ?x2739 ?x667)))
(let ((?x2297 (ite $x3186 (bvadd (bvsub ?x2739 ?x667) (_ bv1 32)) (ite $x1657 (bvadd (bvsub ?x2739 ?x2670) (_ bv1 32)) ?x3789))))
(let ((?x3003 (ite $x1199 (_ bv182 32) (_ bv181 32))))
(let (($x892 (bvsge ?x2739 ?x3003)))
(let ((?x3523 (ite $x1199 (_ bv213 32) (_ bv212 32))))
(let (($x694 (bvsge ?x2739 ?x3523)))
(let ((?x2849 (ite $x694 (bvadd (bvsub ?x2739 ?x3523) (_ bv1 32)) (ite $x892 (bvadd (bvsub ?x2739 ?x3003) (_ bv1 32)) ?x2297))))
(let ((?x2847 (ite $x1199 (_ bv244 32) (_ bv243 32))))
(let (($x3464 (bvsge ?x2739 ?x2847)))
(let ((?x3985 (ite $x1199 (_ bv274 32) (_ bv273 32))))
(let (($x1682 (bvsge ?x2739 ?x3985)))
(let ((?x3726 (ite $x1682 (bvadd (bvsub ?x2739 ?x3985) (_ bv1 32)) (ite $x3464 (bvadd (bvsub ?x2739 ?x2847) (_ bv1 32)) ?x2849))))
(let ((?x1461 (ite $x1199 (_ bv305 32) (_ bv304 32))))
(let (($x2065 (bvsge ?x2739 ?x1461)))
(let ((?x2992 (ite $x1199 (_ bv335 32) (_ bv334 32))))
(let (($x4482 (bvsge ?x2739 ?x2992)))
(let ((?x2799 (ite $x4482 (bvadd (bvsub ?x2739 ?x2992) (_ bv1 32)) (ite $x2065 (bvadd (bvsub ?x2739 ?x1461) (_ bv1 32)) ?x3726))))
(let (($x2251 (= (_ bv0 32) (_ bv365 32))))
(let ((?x4051 (bvadd x_month (bvadd (bvmul (_ bv1 32) (_ bv12 32)) (_ bv0 32)))))
(let ((?x1192 (bvsub (ite (bvuge ?x4051 (_ bv2147483648 32)) (bvsub ?x4051 (_ bv0 32)) ?x4051) (_ bv1 32))))
(let ((?x1482 (bvsmod ?x1192 (_ bv12 32))))
(let ((?x1983 (bvadd ?x1482 (_ bv1 32))))
(let (($x912 (= (_ bv11 32) ?x1983)))
(let (($x1187 (= (_ bv9 32) ?x1983)))
(let (($x1353 (= (_ bv6 32) ?x1983)))
(let (($x4424 (= (_ bv4 32) ?x1983)))
(let ((?x2135 (bvsdiv ?x1192 (_ bv12 32))))
(let ((?x4545 (ite (and (bvuge ?x1192 (_ bv2147483648 32)) (and (distinct (_ bv0 32) ?x1482) true)) (bvsub ?x2135 (_ bv1 32)) ?x2135)))
(let ((?x769 (bvadd x_year ?x4545)))
(let (($x1321 (or (and (= (_ bv0 32) (bvsmod ?x769 (_ bv4 32))) (and (distinct (_ bv0 32) (bvsmod ?x769 (_ bv100 32))) true)) (= (_ bv0 32) (bvsmod ?x769 (_ bv400 32))))))
(let (($x2219 (= (_ bv2 32) ?x1983)))
(let ((?x3436 (ite $x2219 (ite $x1321 (_ bv29 32) (_ bv28 32)) (ite (or $x4424 $x1353 $x1187 $x912) (_ bv30 32) (_ bv31 32)))))
(let ((?x3301 (ite $x789 (_ bv1 32) (ite (bvsgt x_day ?x3436) ?x3436 x_day))))
(let ((?x3101 (ite (bvsgt (_ bv1 32) ?x3301) (_ bv1 32) (ite (bvsgt ?x3301 ?x3436) ?x3436 ?x3301))))
(let ((?x1797 (ite $x2219 (ite $x1321 (_ bv31 32) (_ bv31 32)) (ite (= (_ bv1 32) ?x1983) (ite $x1321 (_ bv0 32) (_ bv0 32)) (_ bv0 32)))))
(let ((?x4402 (ite $x4424 (ite $x1321 (_ bv91 32) (_ bv90 32)) (ite (= (_ bv3 32) ?x1983) (ite $x1321 (_ bv60 32) (_ bv59 32)) ?x1797))))
(let ((?x2817 (ite $x1353 (ite $x1321 (_ bv152 32) (_ bv151 32)) (ite (= (_ bv5 32) ?x1983) (ite $x1321 (_ bv121 32) (_ bv120 32)) ?x4402))))
(let ((?x1332 (ite (= (_ bv8 32) ?x1983) (ite $x1321 (_ bv213 32) (_ bv212 32)) (ite (= (_ bv7 32) ?x1983) (ite $x1321 (_ bv182 32) (_ bv181 32)) ?x2817))))
(let ((?x500 (ite (= (_ bv10 32) ?x1983) (ite $x1321 (_ bv274 32) (_ bv273 32)) (ite $x1187 (ite $x1321 (_ bv244 32) (_ bv243 32)) ?x1332))))
(let ((?x4206 (ite (= (_ bv12 32) ?x1983) (ite $x1321 (_ bv335 32) (_ bv334 32)) (ite $x912 (ite $x1321 (_ bv305 32) (_ bv304 32)) ?x500))))
(let ((?x680 (bvadd (bvmul (_ bv365 32) (bvsub ?x769 (_ bv1 32))) (bvsdiv (bvsub ?x769 (_ bv1 32)) (_ bv4 32)))))
(let ((?x552 (bvadd (bvsub ?x680 (bvsdiv (bvsub ?x769 (_ bv1 32)) (_ bv100 32))) (bvsdiv (bvsub ?x769 (_ bv1 32)) (_ bv400 32)))))
(let ((?x3749 (bvadd (bvadd (bvsub (bvadd (bvadd ?x552 ?x4206) (bvsub ?x3101 (_ bv1 32))) (_ bv730179 32)) (_ bv0 32)) (_ bv730179 32))))
(let ((?x2803 (bvsmod ?x3749 (_ bv146097 32))))
(let ((?x1270 (bvsdiv ?x2803 (_ bv36524 32))))
(let ((?x598 (ite (bvsle (_ bv4 32) ?x1270) (_ bv3 32) ?x1270)))
(let ((?x3490 (bvsub ?x2803 (bvmul ?x598 (_ bv36524 32)))))
(let ((?x3363 (bvsmod ?x3490 (_ bv1461 32))))
(let ((?x1257 (bvsdiv ?x3363 (_ bv365 32))))
(let ((?x1617 (ite (bvsle (_ bv4 32) ?x1257) (_ bv3 32) ?x1257)))
(let ((?x1611 (bvadd (bvadd (bvmul (bvsdiv ?x3749 (_ bv146097 32)) (_ bv400 32)) (bvmul ?x598 (_ bv100 32))) (bvmul (bvsdiv ?x3490 (_ bv1461 32)) (_ bv4 32)))))
(let ((?x3698 (bvadd (bvadd ?x1611 ?x1617) (_ bv1 32))))
(let (($x3028 (or (and (= (_ bv0 32) (bvsmod ?x3698 (_ bv4 32))) (and (distinct (_ bv0 32) (bvsmod ?x3698 (_ bv100 32))) true)) (= (_ bv0 32) (bvsmod ?x3698 (_ bv400 32))))))
(let ((?x4168 (bvsub ?x3363 (bvmul ?x1617 (_ bv365 32)))))
(let ((?x4064 (ite $x3028 (_ bv31 32) (_ bv31 32))))
(let (($x3955 (bvsge ?x4168 ?x4064)))
(let ((?x3275 (ite $x3955 (bvadd (bvsub ?x4168 ?x4064) (_ bv1 32)) (bvadd (bvsub ?x4168 (ite $x3028 (_ bv0 32) (_ bv0 32))) (_ bv1 32)))))
(let ((?x1466 (ite $x3028 (_ bv60 32) (_ bv59 32))))
(let (($x609 (bvsge ?x4168 ?x1466)))
(let ((?x3697 (ite $x3028 (_ bv91 32) (_ bv90 32))))
(let (($x715 (bvsge ?x4168 ?x3697)))
(let ((?x4449 (ite $x715 (bvadd (bvsub ?x4168 ?x3697) (_ bv1 32)) (ite $x609 (bvadd (bvsub ?x4168 ?x1466) (_ bv1 32)) ?x3275))))
(let ((?x2794 (ite $x3028 (_ bv121 32) (_ bv120 32))))
(let (($x1993 (bvsge ?x4168 ?x2794)))
(let ((?x436 (ite $x3028 (_ bv152 32) (_ bv151 32))))
(let (($x4096 (bvsge ?x4168 ?x436)))
(let ((?x1495 (ite $x4096 (bvadd (bvsub ?x4168 ?x436) (_ bv1 32)) (ite $x1993 (bvadd (bvsub ?x4168 ?x2794) (_ bv1 32)) ?x4449))))
(let ((?x4600 (ite $x3028 (_ bv182 32) (_ bv181 32))))
(let (($x3540 (bvsge ?x4168 ?x4600)))
(let ((?x3170 (ite $x3028 (_ bv213 32) (_ bv212 32))))
(let (($x648 (bvsge ?x4168 ?x3170)))
(let ((?x2270 (ite $x648 (bvadd (bvsub ?x4168 ?x3170) (_ bv1 32)) (ite $x3540 (bvadd (bvsub ?x4168 ?x4600) (_ bv1 32)) ?x1495))))
(let ((?x3670 (ite $x3028 (_ bv244 32) (_ bv243 32))))
(let (($x2585 (bvsge ?x4168 ?x3670)))
(let ((?x2269 (ite $x3028 (_ bv274 32) (_ bv273 32))))
(let (($x4013 (bvsge ?x4168 ?x2269)))
(let ((?x996 (ite $x4013 (bvadd (bvsub ?x4168 ?x2269) (_ bv1 32)) (ite $x2585 (bvadd (bvsub ?x4168 ?x3670) (_ bv1 32)) ?x2270))))
(let ((?x1281 (ite $x3028 (_ bv305 32) (_ bv304 32))))
(let (($x2964 (bvsge ?x4168 ?x1281)))
(let ((?x3658 (ite $x3028 (_ bv335 32) (_ bv334 32))))
(let (($x3586 (bvsge ?x4168 ?x3658)))
(let ((?x2374 (ite $x3586 (bvadd (bvsub ?x4168 ?x3658) (_ bv1 32)) (ite $x2964 (bvadd (bvsub ?x4168 ?x1281) (_ bv1 32)) ?x996))))
(let (($x2147 (= (_ bv0 32) (_ bv0 32))))
(let ((?x3317 (ite $x3186 (_ bv6 32) (ite $x1657 (_ bv5 32) (ite $x2058 (_ bv4 32) (ite $x3477 (_ bv3 32) (ite $x1491 (_ bv2 32) (_ bv1 32))))))))
(let ((?x4047 (ite $x2065 (_ bv11 32) (ite $x1682 (_ bv10 32) (ite $x3464 (_ bv9 32) (ite $x694 (_ bv8 32) (ite $x892 (_ bv7 32) ?x3317)))))))
(let ((?x1253 (ite $x4482 (_ bv12 32) ?x4047)))
(let ((?x2881 (ite $x4096 (_ bv6 32) (ite $x1993 (_ bv5 32) (ite $x715 (_ bv4 32) (ite $x609 (_ bv3 32) (ite $x3955 (_ bv2 32) (_ bv1 32))))))))
(let ((?x2329 (ite $x2964 (_ bv11 32) (ite $x4013 (_ bv10 32) (ite $x2585 (_ bv9 32) (ite $x648 (_ bv8 32) (ite $x3540 (_ bv7 32) ?x2881)))))))
(let (($x1916 (and (= (ite $x2147 ?x769 ?x3698) (ite $x2251 ?x3611 ?x3361)) (= (ite $x2147 ?x1983 (ite $x3586 (_ bv12 32) ?x2329)) (ite $x2251 ?x1168 ?x1253)) (= (ite $x2147 ?x3101 ?x2374) (ite $x2251 ?x3560 ?x2799)))))
(not $x1916)))))))))))))))))))))))))))))))))))))))))))))))))))))))))))))))))))))))))))))))))))))))))))))))))))))))))))))))))))))))))))))))))))))))))))
(check-sat)
